decision_x1=[0,2];
decision_x2=[0,2];
decision_x3=[0,2];
decision_x4=[0,2];
decision_x5=[0,2];
decision_x6=[0,2];
decision_x7=[0,2];
decision_x8=[0,2];
decision_x9=[0,2];
decision_x10=[0,2];
random_y1=[0,2];
random_y2=[0,2];
random_y3=[0,2];
random_y4=[0,2];
random_y5=[0,2];
constraint_x2_x1=[
0,0,7.8|
0,1,2.2|
0,2,9.3|
1,0,1.1|
1,1,1.4|
1,2,6.5|
2,0,3.3|
2,1,7.3|
2,2,3|
];
constraint_x4_x2=[
0,0,1.5|
0,1,2.2|
0,2,3.1|
1,0,7.1|
1,1,1.5|
1,2,5.7|
2,0,8.7|
2,1,5.9|
2,2,2.9|
];
constraint_x5_x2=[
0,0,1.8|
0,1,6|
0,2,8.2|
1,0,2|
1,1,4.3|
1,2,2.8|
2,0,7|
2,1,6.6|
2,2,4.2|
];
constraint_x5_x4=[
0,0,0.68|
0,1,0.66|
0,2,2.7|
1,0,9.1|
1,1,0.12|
1,2,0.083|
2,0,4|
2,1,5.1|
2,2,1.4|
];
constraint_x6_x1=[
0,0,1.1|
0,1,0.91|
0,2,1|
1,0,7.8|
1,1,7|
1,2,5.3|
2,0,3.7|
2,1,6.6|
2,2,3.3|
];
constraint_x6_x2=[
0,0,5.1|
0,1,2.3|
0,2,7.7|
1,0,6.2|
1,1,4|
1,2,9.6|
2,0,3.1|
2,1,7.7|
2,2,1.8|
];
constraint_x6_x3=[
0,0,9.6|
0,1,6.9|
0,2,7.7|
1,0,9.5|
1,1,4.3|
1,2,3.1|
2,0,1.6|
2,1,8.6|
2,2,4.6|
];
constraint_x6_x4=[
0,0,9.6|
0,1,8.1|
0,2,7.5|
1,0,8.2|
1,1,6.9|
1,2,3.1|
2,0,9.7|
2,1,0.98|
2,2,5.1|
];
constraint_x6_x5=[
0,0,3.5|
0,1,4.4|
0,2,6|
1,0,9.3|
1,1,8.3|
1,2,7.7|
2,0,5|
2,1,5.4|
2,2,3.5|
];
constraint_x7_x3=[
0,0,8.3|
0,1,9.7|
0,2,2.6|
1,0,3.8|
1,1,5.5|
1,2,4.9|
2,0,4.8|
2,1,5.8|
2,2,5.1|
];
constraint_x7_x5=[
0,0,0.15|
0,1,8.4|
0,2,3|
1,0,9|
1,1,1.3|
1,2,4.6|
2,0,0.48|
2,1,2.8|
2,2,3.4|
];
constraint_x8_x6=[
0,0,0.62|
0,1,1.4|
0,2,0.21|
1,0,5.8|
1,1,4.4|
1,2,4.3|
2,0,5.4|
2,1,0.34|
2,2,7.9|
];
constraint_x8_x7=[
0,0,4.7|
0,1,1.2|
0,2,9.8|
1,0,1.8|
1,1,8.7|
1,2,6.1|
2,0,5.6|
2,1,1.8|
2,2,4.8|
];
constraint_x9_x1=[
0,0,3.1|
0,1,2.6|
0,2,0.12|
1,0,4.3|
1,1,8.4|
1,2,5.9|
2,0,1.3|
2,1,6.2|
2,2,0.17|
];
constraint_x9_x2=[
0,0,2.5|
0,1,9.1|
0,2,6.2|
1,0,2.4|
1,1,2.7|
1,2,1.2|
2,0,5.1|
2,1,9|
2,2,9.3|
];
constraint_x9_x3=[
0,0,0.39|
0,1,0.13|
0,2,4.9|
1,0,9.8|
1,1,7.7|
1,2,3.8|
2,0,5.1|
2,1,2.4|
2,2,9.7|
];
constraint_x9_x7=[
0,0,3.5|
0,1,6.1|
0,2,4.3|
1,0,4.8|
1,1,1.5|
1,2,2.4|
2,0,3.9|
2,1,2.2|
2,2,2.2|
];
constraint_x9_x8=[
0,0,4.5|
0,1,2.6|
0,2,9.4|
1,0,9.9|
1,1,4.3|
1,2,2.1|
2,0,5.6|
2,1,4|
2,2,3.1|
];
constraint_x10_x3=[
0,0,8.7|
0,1,5.8|
0,2,6|
1,0,6.2|
1,1,5.1|
1,2,2.9|
2,0,7.6|
2,1,0.81|
2,2,1.1|
];
constraint_x10_x4=[
0,0,9.4|
0,1,6.6|
0,2,1.4|
1,0,4.8|
1,1,2.5|
1,2,9.2|
2,0,8.8|
2,1,7.2|
2,2,9.5|
];
constraint_x10_x6=[
0,0,8.6|
0,1,6.8|
0,2,4.5|
1,0,4.7|
1,1,1.9|
1,2,7|
2,0,7.1|
2,1,4.1|
2,2,4.9|
];
constraint_x10_x8=[
0,0,6|
0,1,7.9|
0,2,7.9|
1,0,3.7|
1,1,7.5|
1,2,7.2|
2,0,7|
2,1,9.4|
2,2,7.5|
];
constraint_x10_x9=[
0,0,5.6|
0,1,0.1|
0,2,9.9|
1,0,9.5|
1,1,5.7|
1,2,2.5|
2,0,2|
2,1,0.77|
2,2,3.9|
];
constraint_x1_y1=[
0,0,4.4|
0,1,9|
0,2,1.6|
1,0,9.9|
1,1,3.9|
1,2,5.5|
2,0,4.4|
2,1,9.3|
2,2,0.71|
];
constraint_x2_y2=[
0,0,6.3|
0,1,9.7|
0,2,2.7|
1,0,5.2|
1,1,9.2|
1,2,5.2|
2,0,1.7|
2,1,1.3|
2,2,9|
];
constraint_x3_y3=[
0,0,0.89|
0,1,1.9|
0,2,1.6|
1,0,5|
1,1,7.9|
1,2,0.11|
2,0,0.76|
2,1,2.6|
2,2,6.7|
];
constraint_x4_y4=[
0,0,5.6|
0,1,0.63|
0,2,7.9|
1,0,6.5|
1,1,4.1|
1,2,7.1|
2,0,4.9|
2,1,8.5|
2,2,8.1|
];
constraint_x5_y5=[
0,0,7.2|
0,1,0.59|
0,2,9.3|
1,0,5.7|
1,1,1.8|
1,2,6.6|
2,0,3.2|
2,1,2.7|
2,2,8|
];
initial_distribution_y1=[0.52,0.1,0.37];
initial_distribution_y2=[0.38,0.36,0.26];
initial_distribution_y3=[0.66,0.31,0.028];
initial_distribution_y4=[0.25,0.56,0.19];
initial_distribution_y5=[0.49,0.01,0.5];
transition_y1=[
0.61,0.13,0.26|
0.38,0.45,0.17|
0.5,0.41,0.086|
];
transition_y2=[
0.53,0.19,0.29|
0.27,0.2,0.54|
0.13,0.71,0.16|
];
transition_y3=[
0.42,0.15,0.43|
0.22,0.43,0.35|
0.4,0.54,0.06|
];
transition_y4=[
0.053,0.7,0.25|
0.037,0.37,0.59|
0.43,0.21,0.35|
];
transition_y5=[
0.42,0.54,0.037|
0.16,0.73,0.11|
0.29,0.31,0.4|
];
